125 750 13 20
1 0 1
2 0 1
2 1 1
3 0 1
3 1 1
3 2 1
4 0 1
4 1 1
4 2 1
4 3 1
5 0 1
6 1 1
6 5 1
7 2 1
7 5 1
7 6 1
8 3 1
8 5 1
8 6 1
8 7 1
9 4 1
9 5 1
9 6 1
9 7 1
9 8 1
10 0 1
10 5 1
11 1 1
11 6 1
11 10 1
12 2 1
12 7 1
12 10 1
12 11 1
13 3 1
13 8 1
13 10 1
13 11 1
13 12 1
14 4 1
14 9 1
14 10 1
14 11 1
14 12 1
14 13 1
15 0 1
15 5 1
15 10 1
16 1 1
16 6 1
16 11 1
16 15 1
17 2 1
17 7 1
17 12 1
17 15 1
17 16 1
18 3 1
18 8 1
18 13 1
18 15 1
18 16 1
18 17 1
19 4 1
19 9 1
19 14 1
19 15 1
19 16 1
19 17 1
19 18 1
20 0 1
20 5 1
20 10 1
20 15 1
21 1 1
21 6 1
21 11 1
21 16 1
21 20 1
22 2 1
22 7 1
22 12 1
22 17 1
22 20 1
22 21 1
23 3 1
23 8 1
23 13 1
23 18 1
23 20 1
23 21 1
23 22 1
24 4 1
24 9 1
24 14 1
24 19 1
24 20 1
24 21 1
24 22 1
24 23 1
25 0 1
26 1 1
26 25 1
27 2 1
27 25 1
27 26 1
28 3 1
28 25 1
28 26 1
28 27 1
29 4 1
29 25 1
29 26 1
29 27 1
29 28 1
30 5 1
30 25 1
31 6 1
31 26 1
31 30 1
32 7 1
32 27 1
32 30 1
32 31 1
33 8 1
33 28 1
33 30 1
33 31 1
33 32 1
34 9 1
34 29 1
34 30 1
34 31 1
34 32 1
34 33 1
35 10 1
35 25 1
35 30 1
36 11 1
36 26 1
36 31 1
36 35 1
37 12 1
37 27 1
37 32 1
37 35 1
37 36 1
38 13 1
38 28 1
38 33 1
38 35 1
38 36 1
38 37 1
39 14 1
39 29 1
39 34 1
39 35 1
39 36 1
39 37 1
39 38 1
40 15 1
40 25 1
40 30 1
40 35 1
41 16 1
41 26 1
41 31 1
41 36 1
41 40 1
42 17 1
42 27 1
42 32 1
42 37 1
42 40 1
42 41 1
43 18 1
43 28 1
43 33 1
43 38 1
43 40 1
43 41 1
43 42 1
44 19 1
44 29 1
44 34 1
44 39 1
44 40 1
44 41 1
44 42 1
44 43 1
45 20 1
45 25 1
45 30 1
45 35 1
45 40 1
46 21 1
46 26 1
46 31 1
46 36 1
46 41 1
46 45 1
47 22 1
47 27 1
47 32 1
47 37 1
47 42 1
47 45 1
47 46 1
48 23 1
48 28 1
48 33 1
48 38 1
48 43 1
48 45 1
48 46 1
48 47 1
49 24 1
49 29 1
49 34 1
49 39 1
49 44 1
49 45 1
49 46 1
49 47 1
49 48 1
50 0 1
50 25 1
51 1 1
51 26 1
51 50 1
52 2 1
52 27 1
52 50 1
52 51 1
53 3 1
53 28 1
53 50 1
53 51 1
53 52 1
54 4 1
54 29 1
54 50 1
54 51 1
54 52 1
54 53 1
55 5 1
55 30 1
55 50 1
56 6 1
56 31 1
56 51 1
56 55 1
57 7 1
57 32 1
57 52 1
57 55 1
57 56 1
58 8 1
58 33 1
58 53 1
58 55 1
58 56 1
58 57 1
59 9 1
59 34 1
59 54 1
59 55 1
59 56 1
59 57 1
59 58 1
60 10 1
60 35 1
60 50 1
60 55 1
61 11 1
61 36 1
61 51 1
61 56 1
61 60 1
62 12 1
62 37 1
62 52 1
62 57 1
62 60 1
62 61 1
63 13 1
63 38 1
63 53 1
63 58 1
63 60 1
63 61 1
63 62 1
64 14 1
64 39 1
64 54 1
64 59 1
64 60 1
64 61 1
64 62 1
64 63 1
65 15 1
65 40 1
65 50 1
65 55 1
65 60 1
66 16 1
66 41 1
66 51 1
66 56 1
66 61 1
66 65 1
67 17 1
67 42 1
67 52 1
67 57 1
67 62 1
67 65 1
67 66 1
68 18 1
68 43 1
68 53 1
68 58 1
68 63 1
68 65 1
68 66 1
68 67 1
69 19 1
69 44 1
69 54 1
69 59 1
69 64 1
69 65 1
69 66 1
69 67 1
69 68 1
70 20 1
70 45 1
70 50 1
70 55 1
70 60 1
70 65 1
71 21 1
71 46 1
71 51 1
71 56 1
71 61 1
71 66 1
71 70 1
72 22 1
72 47 1
72 52 1
72 57 1
72 62 1
72 67 1
72 70 1
72 71 1
73 23 1
73 48 1
73 53 1
73 58 1
73 63 1
73 68 1
73 70 1
73 71 1
73 72 1
74 24 1
74 49 1
74 54 1
74 59 1
74 64 1
74 69 1
74 70 1
74 71 1
74 72 1
74 73 1
75 0 1
75 25 1
75 50 1
76 1 1
76 26 1
76 51 1
76 75 1
77 2 1
77 27 1
77 52 1
77 75 1
77 76 1
78 3 1
78 28 1
78 53 1
78 75 1
78 76 1
78 77 1
79 4 1
79 29 1
79 54 1
79 75 1
79 76 1
79 77 1
79 78 1
80 5 1
80 30 1
80 55 1
80 75 1
81 6 1
81 31 1
81 56 1
81 76 1
81 80 1
82 7 1
82 32 1
82 57 1
82 77 1
82 80 1
82 81 1
83 8 1
83 33 1
83 58 1
83 78 1
83 80 1
83 81 1
83 82 1
84 9 1
84 34 1
84 59 1
84 79 1
84 80 1
84 81 1
84 82 1
84 83 1
85 10 1
85 35 1
85 60 1
85 75 1
85 80 1
86 11 1
86 36 1
86 61 1
86 76 1
86 81 1
86 85 1
87 12 1
87 37 1
87 62 1
87 77 1
87 82 1
87 85 1
87 86 1
88 13 1
88 38 1
88 63 1
88 78 1
88 83 1
88 85 1
88 86 1
88 87 1
89 14 1
89 39 1
89 64 1
89 79 1
89 84 1
89 85 1
89 86 1
89 87 1
89 88 1
90 15 1
90 40 1
90 65 1
90 75 1
90 80 1
90 85 1
91 16 1
91 41 1
91 66 1
91 76 1
91 81 1
91 86 1
91 90 1
92 17 1
92 42 1
92 67 1
92 77 1
92 82 1
92 87 1
92 90 1
92 91 1
93 18 1
93 43 1
93 68 1
93 78 1
93 83 1
93 88 1
93 90 1
93 91 1
93 92 1
94 19 1
94 44 1
94 69 1
94 79 1
94 84 1
94 89 1
94 90 1
94 91 1
94 92 1
94 93 1
95 20 1
95 45 1
95 70 1
95 75 1
95 80 1
95 85 1
95 90 1
96 21 1
96 46 1
96 71 1
96 76 1
96 81 1
96 86 1
96 91 1
96 95 1
97 22 1
97 47 1
97 72 1
97 77 1
97 82 1
97 87 1
97 92 1
97 95 1
97 96 1
98 23 1
98 48 1
98 73 1
98 78 1
98 83 1
98 88 1
98 93 1
98 95 1
98 96 1
98 97 1
99 24 1
99 49 1
99 74 1
99 79 1
99 84 1
99 89 1
99 94 1
99 95 1
99 96 1
99 97 1
99 98 1
100 0 1
100 25 1
100 50 1
100 75 1
101 1 1
101 26 1
101 51 1
101 76 1
101 100 1
102 2 1
102 27 1
102 52 1
102 77 1
102 100 1
102 101 1
103 3 1
103 28 1
103 53 1
103 78 1
103 100 1
103 101 1
103 102 1
104 4 1
104 29 1
104 54 1
104 79 1
104 100 1
104 101 1
104 102 1
104 103 1
105 5 1
105 30 1
105 55 1
105 80 1
105 100 1
106 6 1
106 31 1
106 56 1
106 81 1
106 101 1
106 105 1
107 7 1
107 32 1
107 57 1
107 82 1
107 102 1
107 105 1
107 106 1
108 8 1
108 33 1
108 58 1
108 83 1
108 103 1
108 105 1
108 106 1
108 107 1
109 9 1
109 34 1
109 59 1
109 84 1
109 104 1
109 105 1
109 106 1
109 107 1
109 108 1
110 10 1
110 35 1
110 60 1
110 85 1
110 100 1
110 105 1
111 11 1
111 36 1
111 61 1
111 86 1
111 101 1
111 106 1
111 110 1
112 12 1
112 37 1
112 62 1
112 87 1
112 102 1
112 107 1
112 110 1
112 111 1
113 13 1
113 38 1
113 63 1
113 88 1
113 103 1
113 108 1
113 110 1
113 111 1
113 112 1
114 14 1
114 39 1
114 64 1
114 89 1
114 104 1
114 109 1
114 110 1
114 111 1
114 112 1
114 113 1
115 15 1
115 40 1
115 65 1
115 90 1
115 100 1
115 105 1
115 110 1
116 16 1
116 41 1
116 66 1
116 91 1
116 101 1
116 106 1
116 111 1
116 115 1
117 17 1
117 42 1
117 67 1
117 92 1
117 102 1
117 107 1
117 112 1
117 115 1
117 116 1
118 18 1
118 43 1
118 68 1
118 93 1
118 103 1
118 108 1
118 113 1
118 115 1
118 116 1
118 117 1
119 19 1
119 44 1
119 69 1
119 94 1
119 104 1
119 109 1
119 114 1
119 115 1
119 116 1
119 117 1
119 118 1
120 20 1
120 45 1
120 70 1
120 95 1
120 100 1
120 105 1
120 110 1
120 115 1
121 21 1
121 46 1
121 71 1
121 96 1
121 101 1
121 106 1
121 111 1
121 116 1
121 120 1
122 22 1
122 47 1
122 72 1
122 97 1
122 102 1
122 107 1
122 112 1
122 117 1
122 120 1
122 121 1
123 23 1
123 48 1
123 73 1
123 98 1
123 103 1
123 108 1
123 113 1
123 118 1
123 120 1
123 121 1
123 122 1
124 24 1
124 49 1
124 74 1
124 99 1
124 104 1
124 109 1
124 114 1
124 119 1
124 120 1
124 121 1
124 122 1
124 123 1
2
11
19
30
48
51
64
67
83
95
104
112
116
